(set-logic QF_S)
(declare-fun V73 () String )
(declare-fun V6 () String )
(declare-fun V121 () String )
(declare-fun V58 () String )
(declare-fun V44 () String )
(declare-fun V112 () String )
(declare-fun V106 () String )
(declare-fun V41 () String )
(declare-fun V102 () String )
(declare-fun V69 () String )
(declare-fun V53 () String )
(declare-fun V15 () String )
(declare-fun V40 () String )
(declare-fun V39 () String )
(declare-fun V80 () String )
(declare-fun V20 () String )
(declare-fun V84 () String )
(declare-fun V96 () String )
(declare-fun V50 () String )
(declare-fun V108 () String )
(declare-fun V107 () String )
(declare-fun V12 () String )
(declare-fun V91 () String )
(declare-fun V61 () String )
(declare-fun V28 () String )
(declare-fun V57 () String )
(declare-fun V0 () String )
(declare-fun V52 () String )
(declare-fun V123 () String )
(declare-fun V110 () String )
(declare-fun V26 () String )
(declare-fun V81 () String )
(declare-fun V76 () String )
(declare-fun V29 () String )
(declare-fun V51 () String )
(declare-fun V78 () String )
(declare-fun V56 () String )
(declare-fun V63 () String )
(declare-fun V92 () String )
(declare-fun V36 () String )
(declare-fun V111 () String )
(declare-fun V72 () String )
(declare-fun V99 () String )
(declare-fun V34 () String )
(declare-fun V45 () String )
(declare-fun V100 () String )
(declare-fun V55 () String )
(declare-fun V109 () String )
(declare-fun V117 () String )
(declare-fun V11 () String )
(declare-fun V105 () String )
(declare-fun V94 () String )
(declare-fun V97 () String )
(declare-fun V62 () String )
(declare-fun V67 () String )
(declare-fun V65 () String )
(declare-fun V59 () String )
(declare-fun V98 () String )
(declare-fun V5 () String )
(declare-fun V42 () String )
(declare-fun V4 () String )
(declare-fun V10 () String )
(declare-fun V77 () String )
(declare-fun V103 () String )
(declare-fun V101 () String )
(declare-fun V75 () String )
(declare-fun V32 () String )
(declare-fun V31 () String )
(declare-fun V18 () String )
(declare-fun V33 () String )
(declare-fun V7 () String )
(declare-fun V8 () String )
(declare-fun V48 () String )
(declare-fun V16 () String )
(declare-fun V68 () String )
(declare-fun V17 () String )
(declare-fun V9 () String )
(declare-fun V70 () String )
(declare-fun V88 () String )
(declare-fun V122 () String )
(declare-fun V125 () String )
(declare-fun V60 () String )
(declare-fun V14 () String )
(declare-fun V119 () String )
(declare-fun V30 () String )
(declare-fun V87 () String )
(declare-fun V116 () String )
(declare-fun V54 () String )
(declare-fun V1 () String )
(declare-fun V47 () String )
(declare-fun V74 () String )
(declare-fun V37 () String )
(declare-fun V13 () String )
(declare-fun V89 () String )
(declare-fun V126 () String )
(declare-fun V86 () String )
(declare-fun V64 () String )
(declare-fun V35 () String )
(declare-fun V93 () String )
(declare-fun V82 () String )
(declare-fun V66 () String )
(declare-fun V113 () String )
(declare-fun V2 () String )
(declare-fun V27 () String )
(declare-fun V25 () String )
(declare-fun V71 () String )
(declare-fun V85 () String )
(declare-fun V120 () String )
(declare-fun V19 () String )
(declare-fun V79 () String )
(declare-fun V83 () String )
(declare-fun V124 () String )
(declare-fun V118 () String )
(declare-fun V24 () String )
(declare-fun V95 () String )
(declare-fun V23 () String )
(declare-fun V43 () String )
(declare-fun V104 () String )
(declare-fun V38 () String )
(declare-fun V49 () String )
(declare-fun V3 () String )
(declare-fun V90 () String )
(declare-fun V22 () String )
(declare-fun V21 () String )
(declare-fun V46 () String )
(assert (= "" "F" ) )
(assert (= "" "G" ) )
(assert (= "" V34 ) )
(assert (= "" (str.++ (str.++ V51 V66 ) V67 ) ) )
(assert (= ":" V22 ) )
(assert (= "A" V0 ) )
(assert (= "F" V17 ) )
(assert (= "G" V16 ) )
(assert (= "H" V14 ) )
(assert (= "I" V20 ) )
(assert (= "Q" V21 ) )
(assert (= "U" V18 ) )
(assert (= "V" V15 ) )
(assert (= "W" V12 ) )
(assert (= "X" V5 ) )
(assert (= "Y" V19 ) )
(assert (= "Z" V13 ) )
(assert (= V41 V49 ) )
(assert (= V113 V42 ) )
(assert (= V6 V47 ) )
(assert (= V97 V45 ) )
(assert (= V2 (str.++ (str.++ V116 "A" ) V117 ) ) )
(assert (= V44 (str.++ (str.++ V116 "a" ) V117 ) ) )
(assert (= V99 V98 ) )
(assert (= V101 V100 ) )
(assert (= V82 V78 ) )
(assert (= V74 V51 ) )
(assert (= V90 V51 ) )
(assert (= V84 V51 ) )
(assert (= V76 V51 ) )
(assert (= V28 V51 ) )
(assert (= V80 V51 ) )
(assert (= V88 V51 ) )
(assert (= V86 V51 ) )
(assert (= V30 V61 ) )
(assert (= V30 V65 ) )
(assert (= V60 V64 ) )
(assert (= V60 V108 ) )
(assert (= V60 (str.++ (str.++ V103 "F" ) V105 ) ) )
(assert (= V64 V29 ) )
(assert (= V64 V75 ) )
(assert (= V64 V91 ) )
(assert (= V64 V85 ) )
(assert (= V64 V77 ) )
(assert (= V64 V81 ) )
(assert (= V64 V89 ) )
(assert (= V64 V87 ) )
(assert (= V68 V58 ) )
(assert (= V68 V124 ) )
(assert (= V52 V58 ) )
(assert (= V52 V112 ) )
(assert (= V58 V66 ) )
(assert (= V58 V70 ) )
(assert (= V58 V62 ) )
(assert (= V58 V54 ) )
(assert (= V58 V56 ) )
(assert (= V58 V120 ) )
(assert (= V66 V123 ) )
(assert (= V70 V126 ) )
(assert (= V62 V125 ) )
(assert (= V54 V119 ) )
(assert (= V56 V118 ) )
(assert (= V83 V79 ) )
(assert (= V69 V59 ) )
(assert (= V53 V59 ) )
(assert (= V59 V67 ) )
(assert (= V59 V71 ) )
(assert (= V59 V63 ) )
(assert (= V59 V55 ) )
(assert (= V59 V57 ) )
(assert (= V103 V102 ) )
(assert (= V105 V104 ) )
(assert (= V108 (str.++ (str.++ V103 "f" ) V105 ) ) )
(assert (= V109 (str.++ (str.++ V102 "g" ) V104 ) ) )
(assert (= V31 (str.++ (str.++ V121 "a" ) V122 ) ) )
(assert (= V9 (str.++ (str.++ V121 "A" ) V122 ) ) )
(assert (= V4 (str.++ (str.++ V25 V26 ) V27 ) ) )
(assert (= V4 (str.++ (str.++ V33 V34 ) V35 ) ) )
(assert (= V4 (str.++ (str.++ V36 "A" ) V37 ) ) )
(assert (= V4 (str.++ (str.++ V1 V2 ) V3 ) ) )
(assert (= V11 (str.++ (str.++ V95 "A" ) V96 ) ) )
(assert (= V11 (str.++ (str.++ V94 V32 ) V24 ) ) )
(assert (= V11 (str.++ (str.++ V8 V9 ) V10 ) ) )
(assert (= V11 (str.++ (str.++ V23 V4 ) V24 ) ) )
(assert (= V11 (str.++ (str.++ V39 "://" ) V40 ) ) )
(assert (= V11 (str.++ "mongodb://" V38 ) ) )
(assert (= (str.++ "F" V101 ) (str.++ "G" V100 ) ) )
(assert (= (str.++ "F" V105 ) (str.++ "G" V104 ) ) )
(assert (= (str.++ V6 V7 ) "localhost" ) )
(assert (= (str.++ V44 V26 ) (str.++ (str.++ V110 "Q" ) V111 ) ) )
(assert (= (str.++ V44 V26 ) (str.++ (str.++ V106 "Z" ) V107 ) ) )
(assert (= (str.++ V44 V26 ) (str.++ (str.++ V41 V42 ) V43 ) ) )
(assert (= (str.++ V44 V26 ) (str.++ (str.++ V41 V47 ) V48 ) ) )
(assert (= (str.++ V44 V26 ) (str.++ (str.++ V41 V45 ) V46 ) ) )
(assert (= (str.++ V44 V26 ) (str.++ (str.++ V92 V93 ) V50 ) ) )
(assert (= (str.++ V44 V26 ) (str.++ (str.++ V49 V7 ) V50 ) ) )
(assert (= (str.++ V44 V26 ) (str.++ (str.++ V72 V73 ) V50 ) ) )
(assert (= (str.++ V82 V83 ) (str.++ V78 V79 ) ) )
(assert (= (str.++ V74 V75 ) (str.++ V51 V64 ) ) )
(assert (= (str.++ V90 V91 ) (str.++ V51 V64 ) ) )
(assert (= (str.++ V84 V85 ) (str.++ V51 V64 ) ) )
(assert (= (str.++ V76 V77 ) (str.++ V51 V64 ) ) )
(assert (= (str.++ V28 V29 ) (str.++ V51 V64 ) ) )
(assert (= (str.++ V80 V81 ) (str.++ V51 V64 ) ) )
(assert (= (str.++ V88 V89 ) (str.++ V51 V64 ) ) )
(assert (= (str.++ V86 V87 ) (str.++ V51 V64 ) ) )
(assert (= (str.++ V60 V61 ) (str.++ V64 V65 ) ) )
(assert (= (str.++ V64 V65 ) (str.++ V29 V30 ) ) )
(assert (= (str.++ V64 V65 ) (str.++ V75 V30 ) ) )
(assert (= (str.++ V64 V65 ) (str.++ V91 V30 ) ) )
(assert (= (str.++ V64 V65 ) (str.++ V85 V30 ) ) )
(assert (= (str.++ V64 V65 ) (str.++ V77 V30 ) ) )
(assert (= (str.++ V64 V65 ) (str.++ V81 V30 ) ) )
(assert (= (str.++ V64 V65 ) (str.++ V89 V30 ) ) )
(assert (= (str.++ V64 V65 ) (str.++ V87 V30 ) ) )
(assert (= (str.++ V68 V69 ) (str.++ V58 V59 ) ) )
(assert (= (str.++ V52 V53 ) (str.++ V58 V59 ) ) )
(assert (= (str.++ V58 V59 ) (str.++ V66 V67 ) ) )
(assert (= (str.++ V58 V59 ) (str.++ V70 V71 ) ) )
(assert (= (str.++ V58 V59 ) (str.++ V62 V63 ) ) )
(assert (= (str.++ V58 V59 ) (str.++ V54 V55 ) ) )
(assert (= (str.++ V58 V59 ) (str.++ V56 V57 ) ) )
(assert (= (str.++ V83 V30 ) (str.++ V79 V30 ) ) )
(assert (= (str.++ V103 "F" ) (str.++ V102 "G" ) ) )
(assert (= (str.++ V124 V75 ) (str.++ V112 V91 ) ) )
(assert (= (str.++ V112 V91 ) (str.++ V120 V85 ) ) )
(assert (= (str.++ V112 V91 ) (str.++ V123 V77 ) ) )
(assert (= (str.++ V112 V91 ) (str.++ V126 V29 ) ) )
(assert (= (str.++ V112 V91 ) (str.++ V125 V81 ) ) )
(assert (= (str.++ V112 V91 ) (str.++ V119 V89 ) ) )
(assert (= (str.++ V112 V91 ) (str.++ V118 V87 ) ) )
(assert (= (str.++ V31 V32 ) (str.++ (str.++ V82 V83 ) V30 ) ) )
(assert (= (str.++ V31 V32 ) (str.++ (str.++ V78 V79 ) V30 ) ) )
(assert (= (str.++ V31 V32 ) (str.++ (str.++ V74 V75 ) V30 ) ) )
(assert (= (str.++ V31 V32 ) (str.++ (str.++ V90 V91 ) V30 ) ) )
(assert (= (str.++ V31 V32 ) (str.++ (str.++ V84 V85 ) V30 ) ) )
(assert (= (str.++ V31 V32 ) (str.++ (str.++ V76 V77 ) V30 ) ) )
(assert (= (str.++ V31 V32 ) (str.++ (str.++ V28 V29 ) V30 ) ) )
(assert (= (str.++ V31 V32 ) (str.++ (str.++ V80 V81 ) V30 ) ) )
(assert (= (str.++ V31 V32 ) (str.++ (str.++ V88 V89 ) V30 ) ) )
(assert (= (str.++ V31 V32 ) (str.++ (str.++ V86 V87 ) V30 ) ) )
(assert (= (str.++ V31 V32 ) (str.++ (str.++ V51 V60 ) V61 ) ) )
(assert (= (str.++ V31 V32 ) (str.++ (str.++ V51 V64 ) V65 ) ) )
(assert (= (str.++ V31 V32 ) (str.++ (str.++ V51 V68 ) V69 ) ) )
(assert (= (str.++ V31 V32 ) (str.++ (str.++ V51 V52 ) V53 ) ) )
(assert (= (str.++ V31 V32 ) (str.++ (str.++ V51 V58 ) V59 ) ) )
(assert (= (str.++ V31 V32 ) (str.++ (str.++ V51 V66 ) V67 ) ) )
(assert (= (str.++ V31 V32 ) (str.++ (str.++ V51 V70 ) V71 ) ) )
(assert (= (str.++ V31 V32 ) (str.++ (str.++ V51 V62 ) V63 ) ) )
(assert (= (str.++ V31 V32 ) (str.++ (str.++ V51 V54 ) V55 ) ) )
(assert (= (str.++ V31 V32 ) (str.++ (str.++ V51 V56 ) V57 ) ) )
(assert (= (str.++ (str.++ V99 "F" ) V101 ) (str.++ (str.++ V98 "G" ) V100 ) ) )
(assert (= (str.++ (str.++ V103 "F" ) V105 ) (str.++ (str.++ V102 "G" ) V104 ) ) )
( check-sat )
